2 1
3 1
3 2
4 1
4 2
4 3
5 1
5 2
5 3
5 4
6 1
6 2
6 3
6 4
6 5
7 1
7 2
7 3
7 4
7 5
7 6
8 1
8 2
8 3
8 4
8 5
8 6
8 7
9 1
9 2
9 3
9 4
9 5
9 6
9 7
9 8
10 1
10 2
10 3
10 4
10 5
10 6
10 7
10 8
10 9
11 1
11 2
11 3
11 4
11 5
11 6
11 7
11 8
11 9
11 10
12 1
12 2
12 3
12 4
12 5
12 6
12 7
12 8
12 9
12 10
12 11
13 1
13 2
13 3
13 4
13 5
13 6
13 7
13 8
13 9
13 10
13 11
13 12
14 1
14 2
15 1
15 2
15 3
15 14
16 2
16 3
16 4
16 14
16 15
17 3
17 4
17 5
17 14
17 15
17 16
18 4
18 5
18 6
18 14
18 15
18 16
18 17
19 5
19 6
19 7
19 14
19 15
19 16
19 17
19 18
20 6
20 7
20 8
20 14
20 15
20 16
20 17
20 18
20 19
21 7
21 8
21 9
21 14
21 15
21 16
21 17
21 18
21 19
21 20
22 8
22 9
22 10
22 14
22 15
22 16
22 17
22 18
22 19
22 20
22 21
23 9
23 10
23 11
23 14
23 15
23 16
23 17
23 18
23 19
23 20
23 21
23 22
24 10
24 11
24 12
24 14
24 15
24 16
24 17
24 18
24 19
24 20
24 21
24 22
24 23
25 11
25 12
25 13
25 14
25 15
25 16
25 17
25 18
25 19
25 20
25 21
25 22
25 23
25 24
26 12
26 13
26 14
26 15
26 16
26 17
26 18
26 19
26 20
26 21
26 22
26 23
26 24
26 25
27 1
27 3
27 14
27 15
28 2
28 4
28 14
28 15
28 16
28 27
29 1
29 3
29 5
29 15
29 16
29 17
29 27
29 28
30 2
30 4
30 6
30 16
30 17
30 18
30 27
30 28
30 29
31 3
31 5
31 7
31 17
31 18
31 19
31 27
31 28
31 29
31 30
32 4
32 6
32 8
32 18
32 19
32 20
32 27
32 28
32 29
32 30
32 31
33 5
33 7
33 9
33 19
33 20
33 21
33 27
33 28
33 29
33 30
33 31
33 32
34 6
34 8
34 10
34 20
34 21
34 22
34 27
34 28
34 29
34 30
34 31
34 32
34 33
35 7
35 9
35 11
35 21
35 22
35 23
35 27
35 28
35 29
35 30
35 31
35 32
35 33
35 34
36 8
36 10
36 12
36 22
36 23
36 24
36 27
36 28
36 29
36 30
36 31
36 32
36 33
36 34
36 35
37 9
37 11
37 13
37 23
37 24
37 25
37 27
37 28
37 29
37 30
37 31
37 32
37 33
37 34
37 35
37 36
38 10
38 12
38 24
38 25
38 26
38 27
38 28
38 29
38 30
38 31
38 32
38 33
38 34
38 35
38 36
38 37
39 11
39 13
39 25
39 26
39 27
39 28
39 29
39 30
39 31
39 32
39 33
39 34
39 35
39 36
39 37
39 38
40 1
40 4
40 14
40 16
40 27
40 28
41 2
41 5
41 15
41 17
41 27
41 28
41 29
41 40
42 3
42 6
42 14
42 16
42 18
42 28
42 29
42 30
42 40
42 41
43 1
43 4
43 7
43 15
43 17
43 19
43 29
43 30
43 31
43 40
43 41
43 42
44 2
44 5
44 8
44 16
44 18
44 20
44 30
44 31
44 32
44 40
44 41
44 42
44 43
45 3
45 6
45 9
45 17
45 19
45 21
45 31
45 32
45 33
45 40
45 41
45 42
45 43
45 44
46 4
46 7
46 10
46 18
46 20
46 22
46 32
46 33
46 34
46 40
46 41
46 42
46 43
46 44
46 45
47 5
47 8
47 11
47 19
47 21
47 23
47 33
47 34
47 35
47 40
47 41
47 42
47 43
47 44
47 45
47 46
48 6
48 9
48 12
48 20
48 22
48 24
48 34
48 35
48 36
48 40
48 41
48 42
48 43
48 44
48 45
48 46
48 47
49 7
49 10
49 13
49 21
49 23
49 25
49 35
49 36
49 37
49 40
49 41
49 42
49 43
49 44
49 45
49 46
49 47
49 48
50 8
50 11
50 22
50 24
50 26
50 36
50 37
50 38
50 40
50 41
50 42
50 43
50 44
50 45
50 46
50 47
50 48
50 49
51 9
51 12
51 23
51 25
51 37
51 38
51 39
51 40
51 41
51 42
51 43
51 44
51 45
51 46
51 47
51 48
51 49
51 50
52 10
52 13
52 24
52 26
52 38
52 39
52 40
52 41
52 42
52 43
52 44
52 45
52 46
52 47
52 48
52 49
52 50
52 51
53 1
53 5
53 14
53 17
53 27
53 29
53 40
53 41
54 2
54 6
54 15
54 18
54 28
54 30
54 40
54 41
54 42
54 53
55 3
55 7
55 16
55 19
55 27
55 29
55 31
55 41
55 42
55 43
55 53
55 54
56 4
56 8
56 14
56 17
56 20
56 28
56 30
56 32
56 42
56 43
56 44
56 53
56 54
56 55
57 1
57 5
57 9
57 15
57 18
57 21
57 29
57 31
57 33
57 43
57 44
57 45
57 53
57 54
57 55
57 56
58 2
58 6
58 10
58 16
58 19
58 22
58 30
58 32
58 34
58 44
58 45
58 46
58 53
58 54
58 55
58 56
58 57
59 3
59 7
59 11
59 17
59 20
59 23
59 31
59 33
59 35
59 45
59 46
59 47
59 53
59 54
59 55
59 56
59 57
59 58
60 4
60 8
60 12
60 18
60 21
60 24
60 32
60 34
60 36
60 46
60 47
60 48
60 53
60 54
60 55
60 56
60 57
60 58
60 59
61 5
61 9
61 13
61 19
61 22
61 25
61 33
61 35
61 37
61 47
61 48
61 49
61 53
61 54
61 55
61 56
61 57
61 58
61 59
61 60
62 6
62 10
62 20
62 23
62 26
62 34
62 36
62 38
62 48
62 49
62 50
62 53
62 54
62 55
62 56
62 57
62 58
62 59
62 60
62 61
63 7
63 11
63 21
63 24
63 35
63 37
63 39
63 49
63 50
63 51
63 53
63 54
63 55
63 56
63 57
63 58
63 59
63 60
63 61
63 62
64 8
64 12
64 22
64 25
64 36
64 38
64 50
64 51
64 52
64 53
64 54
64 55
64 56
64 57
64 58
64 59
64 60
64 61
64 62
64 63
65 9
65 13
65 23
65 26
65 37
65 39
65 51
65 52
65 53
65 54
65 55
65 56
65 57
65 58
65 59
65 60
65 61
65 62
65 63
65 64
66 1
66 6
66 14
66 18
66 27
66 30
66 40
66 42
66 53
66 54
67 2
67 7
67 15
67 19
67 28
67 31
67 41
67 43
67 53
67 54
67 55
67 66
68 3
68 8
68 16
68 20
68 29
68 32
68 40
68 42
68 44
68 54
68 55
68 56
68 66
68 67
69 4
69 9
69 17
69 21
69 27
69 30
69 33
69 41
69 43
69 45
69 55
69 56
69 57
69 66
69 67
69 68
70 5
70 10
70 14
70 18
70 22
70 28
70 31
70 34
70 42
70 44
70 46
70 56
70 57
70 58
70 66
70 67
70 68
70 69
71 1
71 6
71 11
71 15
71 19
71 23
71 29
71 32
71 35
71 43
71 45
71 47
71 57
71 58
71 59
71 66
71 67
71 68
71 69
71 70
72 2
72 7
72 12
72 16
72 20
72 24
72 30
72 33
72 36
72 44
72 46
72 48
72 58
72 59
72 60
72 66
72 67
72 68
72 69
72 70
72 71
73 3
73 8
73 13
73 17
73 21
73 25
73 31
73 34
73 37
73 45
73 47
73 49
73 59
73 60
73 61
73 66
73 67
73 68
73 69
73 70
73 71
73 72
74 4
74 9
74 18
74 22
74 26
74 32
74 35
74 38
74 46
74 48
74 50
74 60
74 61
74 62
74 66
74 67
74 68
74 69
74 70
74 71
74 72
74 73
75 5
75 10
75 19
75 23
75 33
75 36
75 39
75 47
75 49
75 51
75 61
75 62
75 63
75 66
75 67
75 68
75 69
75 70
75 71
75 72
75 73
75 74
76 6
76 11
76 20
76 24
76 34
76 37
76 48
76 50
76 52
76 62
76 63
76 64
76 66
76 67
76 68
76 69
76 70
76 71
76 72
76 73
76 74
76 75
77 7
77 12
77 21
77 25
77 35
77 38
77 49
77 51
77 63
77 64
77 65
77 66
77 67
77 68
77 69
77 70
77 71
77 72
77 73
77 74
77 75
77 76
78 8
78 13
78 22
78 26
78 36
78 39
78 50
78 52
78 64
78 65
78 66
78 67
78 68
78 69
78 70
78 71
78 72
78 73
78 74
78 75
78 76
78 77
79 1
79 7
79 14
79 19
79 27
79 31
79 40
79 43
79 53
79 55
79 66
79 67
80 2
80 8
80 15
80 20
80 28
80 32
80 41
80 44
80 54
80 56
80 66
80 67
80 68
80 79
81 3
81 9
81 16
81 21
81 29
81 33
81 42
81 45
81 53
81 55
81 57
81 67
81 68
81 69
81 79
81 80
82 4
82 10
82 17
82 22
82 30
82 34
82 40
82 43
82 46
82 54
82 56
82 58
82 68
82 69
82 70
82 79
82 80
82 81
83 5
83 11
83 18
83 23
83 27
83 31
83 35
83 41
83 44
83 47
83 55
83 57
83 59
83 69
83 70
83 71
83 79
83 80
83 81
83 82
84 6
84 12
84 14
84 19
84 24
84 28
84 32
84 36
84 42
84 45
84 48
84 56
84 58
84 60
84 70
84 71
84 72
84 79
84 80
84 81
84 82
84 83
85 1
85 7
85 13
85 15
85 20
85 25
85 29
85 33
85 37
85 43
85 46
85 49
85 57
85 59
85 61
85 71
85 72
85 73
85 79
85 80
85 81
85 82
85 83
85 84
86 2
86 8
86 16
86 21
86 26
86 30
86 34
86 38
86 44
86 47
86 50
86 58
86 60
86 62
86 72
86 73
86 74
86 79
86 80
86 81
86 82
86 83
86 84
86 85
87 3
87 9
87 17
87 22
87 31
87 35
87 39
87 45
87 48
87 51
87 59
87 61
87 63
87 73
87 74
87 75
87 79
87 80
87 81
87 82
87 83
87 84
87 85
87 86
88 4
88 10
88 18
88 23
88 32
88 36
88 46
88 49
88 52
88 60
88 62
88 64
88 74
88 75
88 76
88 79
88 80
88 81
88 82
88 83
88 84
88 85
88 86
88 87
89 5
89 11
89 19
89 24
89 33
89 37
89 47
89 50
89 61
89 63
89 65
89 75
89 76
89 77
89 79
89 80
89 81
89 82
89 83
89 84
89 85
89 86
89 87
89 88
90 6
90 12
90 20
90 25
90 34
90 38
90 48
90 51
90 62
90 64
90 76
90 77
90 78
90 79
90 80
90 81
90 82
90 83
90 84
90 85
90 86
90 87
90 88
90 89
91 7
91 13
91 21
91 26
91 35
91 39
91 49
91 52
91 63
91 65
91 77
91 78
91 79
91 80
91 81
91 82
91 83
91 84
91 85
91 86
91 87
91 88
91 89
91 90
92 1
92 8
92 14
92 20
92 27
92 32
92 40
92 44
92 53
92 56
92 66
92 68
92 79
92 80
93 2
93 9
93 15
93 21
93 28
93 33
93 41
93 45
93 54
93 57
93 67
93 69
93 79
93 80
93 81
93 92
94 3
94 10
94 16
94 22
94 29
94 34
94 42
94 46
94 55
94 58
94 66
94 68
94 70
94 80
94 81
94 82
94 92
94 93
95 4
95 11
95 17
95 23
95 30
95 35
95 43
95 47
95 53
95 56
95 59
95 67
95 69
95 71
95 81
95 82
95 83
95 92
95 93
95 94
96 5
96 12
96 18
96 24
96 31
96 36
96 40
96 44
96 48
96 54
96 57
96 60
96 68
96 70
96 72
96 82
96 83
96 84
96 92
96 93
96 94
96 95
97 6
97 13
97 19
97 25
97 27
97 32
97 37
97 41
97 45
97 49
97 55
97 58
97 61
97 69
97 71
97 73
97 83
97 84
97 85
97 92
97 93
97 94
97 95
97 96
98 7
98 14
98 20
98 26
98 28
98 33
98 38
98 42
98 46
98 50
98 56
98 59
98 62
98 70
98 72
98 74
98 84
98 85
98 86
98 92
98 93
98 94
98 95
98 96
98 97
99 1
99 8
99 15
99 21
99 29
99 34
99 39
99 43
99 47
99 51
99 57
99 60
99 63
99 71
99 73
99 75
99 85
99 86
99 87
99 92
99 93
99 94
99 95
99 96
99 97
99 98
100 2
100 9
100 16
100 22
100 30
100 35
100 44
100 48
100 52
100 58
100 61
100 64
100 72
100 74
100 76
100 86
100 87
100 88
100 92
100 93
100 94
100 95
100 96
100 97
100 98
100 99
101 3
101 10
101 17
101 23
101 31
101 36
101 45
101 49
101 59
101 62
101 65
101 73
101 75
101 77
101 87
101 88
101 89
101 92
101 93
101 94
101 95
101 96
101 97
101 98
101 99
101 100
102 4
102 11
102 18
102 24
102 32
102 37
102 46
102 50
102 60
102 63
102 74
102 76
102 78
102 88
102 89
102 90
102 92
102 93
102 94
102 95
102 96
102 97
102 98
102 99
102 100
102 101
103 5
103 12
103 19
103 25
103 33
103 38
103 47
103 51
103 61
103 64
103 75
103 77
103 89
103 90
103 91
103 92
103 93
103 94
103 95
103 96
103 97
103 98
103 99
103 100
103 101
103 102
104 6
104 13
104 20
104 26
104 34
104 39
104 48
104 52
104 62
104 65
104 76
104 78
104 90
104 91
104 92
104 93
104 94
104 95
104 96
104 97
104 98
104 99
104 100
104 101
104 102
104 103
105 1
105 9
105 14
105 21
105 27
105 33
105 40
105 45
105 53
105 57
105 66
105 69
105 79
105 81
105 92
105 93
106 2
106 10
106 15
106 22
106 28
106 34
106 41
106 46
106 54
106 58
106 67
106 70
106 80
106 82
106 92
106 93
106 94
106 105
107 3
107 11
107 16
107 23
107 29
107 35
107 42
107 47
107 55
107 59
107 68
107 71
107 79
107 81
107 83
107 93
107 94
107 95
107 105
107 106
108 4
108 12
108 17
108 24
108 30
108 36
108 43
108 48
108 56
108 60
108 66
108 69
108 72
108 80
108 82
108 84
108 94
108 95
108 96
108 105
108 106
108 107
109 5
109 13
109 18
109 25
109 31
109 37
109 44
109 49
109 53
109 57
109 61
109 67
109 70
109 73
109 81
109 83
109 85
109 95
109 96
109 97
109 105
109 106
109 107
109 108
110 6
110 19
110 26
110 32
110 38
110 40
110 45
110 50
110 54
110 58
110 62
110 68
110 71
110 74
110 82
110 84
110 86
110 96
110 97
110 98
110 105
110 106
110 107
110 108
110 109
111 7
111 20
111 27
111 33
111 39
111 41
111 46
111 51
111 55
111 59
111 63
111 69
111 72
111 75
111 83
111 85
111 87
111 97
111 98
111 99
111 105
111 106
111 107
111 108
111 109
111 110
112 8
112 14
112 21
112 28
112 34
112 42
112 47
112 52
112 56
112 60
112 64
112 70
112 73
112 76
112 84
112 86
112 88
112 98
112 99
112 100
112 105
112 106
112 107
112 108
112 109
112 110
112 111
113 1
113 9
113 15
113 22
113 29
113 35
113 43
113 48
113 57
113 61
113 65
113 71
113 74
113 77
113 85
113 87
113 89
113 99
113 100
113 101
113 105
113 106
113 107
113 108
113 109
113 110
113 111
113 112
114 2
114 10
114 16
114 23
114 30
114 36
114 44
114 49
114 58
114 62
114 72
114 75
114 78
114 86
114 88
114 90
114 100
114 101
114 102
114 105
114 106
114 107
114 108
114 109
114 110
114 111
114 112
114 113
115 3
115 11
115 17
115 24
115 31
115 37
115 45
115 50
115 59
115 63
115 73
115 76
115 87
115 89
115 91
115 101
115 102
115 103
115 105
115 106
115 107
115 108
115 109
115 110
115 111
115 112
115 113
115 114
116 4
116 12
116 18
116 25
116 32
116 38
116 46
116 51
116 60
116 64
116 74
116 77
116 88
116 90
116 102
116 103
116 104
116 105
116 106
116 107
116 108
116 109
116 110
116 111
116 112
116 113
116 114
116 115
117 5
117 13
117 19
117 26
117 33
117 39
117 47
117 52
117 61
117 65
117 75
117 78
117 89
117 91
117 103
117 104
117 105
117 106
117 107
117 108
117 109
117 110
117 111
117 112
117 113
117 114
117 115
117 116
118 1
118 10
118 14
118 22
118 27
118 34
118 40
118 46
118 53
118 58
118 66
118 70
118 79
118 82
118 92
118 94
118 105
118 106
119 2
119 11
119 15
119 23
119 28
119 35
119 41
119 47
119 54
119 59
119 67
119 71
119 80
119 83
119 93
119 95
119 105
119 106
119 107
119 118
120 3
120 12
120 16
120 24
120 29
120 36
120 42
120 48
120 55
120 60
120 68
120 72
120 81
120 84
120 92
120 94
120 96
120 106
120 107
120 108
120 118
120 119
121 4
121 13
121 17
121 25
121 30
121 37
121 43
121 49
121 56
121 61
121 69
121 73
121 79
121 82
121 85
121 93
121 95
121 97
121 107
121 108
121 109
121 118
121 119
121 120
122 5
122 18
122 26
122 31
122 38
122 44
122 50
122 57
122 62
122 66
122 70
122 74
122 80
122 83
122 86
122 94
122 96
122 98
122 108
122 109
122 110
122 118
122 119
122 120
122 121
123 6
123 19
123 32
123 39
123 45
123 51
123 53
123 58
123 63
123 67
123 71
123 75
123 81
123 84
123 87
123 95
123 97
123 99
123 109
123 110
123 111
123 118
123 119
123 120
123 121
123 122
124 7
124 20
124 33
124 40
124 46
124 52
124 54
124 59
124 64
124 68
124 72
124 76
124 82
124 85
124 88
124 96
124 98
124 100
124 110
124 111
124 112
124 118
124 119
124 120
124 121
124 122
124 123
125 8
125 21
125 27
125 34
125 41
125 47
125 55
125 60
125 65
125 69
125 73
125 77
125 83
125 86
125 89
125 97
125 99
125 101
125 111
125 112
125 113
125 118
125 119
125 120
125 121
125 122
125 123
125 124
126 9
126 14
126 22
126 28
126 35
126 42
126 48
126 56
126 61
126 70
126 74
126 78
126 84
126 87
126 90
126 98
126 100
126 102
126 112
126 113
126 114
126 118
126 119
126 120
126 121
126 122
126 123
126 124
126 125
127 1
127 10
127 15
127 23
127 29
127 36
127 43
127 49
127 57
127 62
127 71
127 75
127 85
127 88
127 91
127 99
127 101
127 103
127 113
127 114
127 115
127 118
127 119
127 120
127 121
127 122
127 123
127 124
127 125
127 126
128 2
128 11
128 16
128 24
128 30
128 37
128 44
128 50
128 58
128 63
128 72
128 76
128 86
128 89
128 100
128 102
128 104
128 114
128 115
128 116
128 118
128 119
128 120
128 121
128 122
128 123
128 124
128 125
128 126
128 127
129 3
129 12
129 17
129 25
129 31
129 38
129 45
129 51
129 59
129 64
129 73
129 77
129 87
129 90
129 101
129 103
129 115
129 116
129 117
129 118
129 119
129 120
129 121
129 122
129 123
129 124
129 125
129 126
129 127
129 128
130 4
130 13
130 18
130 26
130 32
130 39
130 46
130 52
130 60
130 65
130 74
130 78
130 88
130 91
130 102
130 104
130 116
130 117
130 118
130 119
130 120
130 121
130 122
130 123
130 124
130 125
130 126
130 127
130 128
130 129
131 1
131 11
131 14
131 23
131 27
131 35
131 40
131 47
131 53
131 59
131 66
131 71
131 79
131 83
131 92
131 95
131 105
131 107
131 118
131 119
132 2
132 12
132 15
132 24
132 28
132 36
132 41
132 48
132 54
132 60
132 67
132 72
132 80
132 84
132 93
132 96
132 106
132 108
132 118
132 119
132 120
132 131
133 3
133 13
133 16
133 25
133 29
133 37
133 42
133 49
133 55
133 61
133 68
133 73
133 81
133 85
133 94
133 97
133 105
133 107
133 109
133 119
133 120
133 121
133 131
133 132
134 4
134 17
134 26
134 30
134 38
134 43
134 50
134 56
134 62
134 69
134 74
134 82
134 86
134 92
134 95
134 98
134 106
134 108
134 110
134 120
134 121
134 122
134 131
134 132
134 133
135 5
135 18
135 31
135 39
135 44
135 51
135 57
135 63
135 70
135 75
135 79
135 83
135 87
135 93
135 96
135 99
135 107
135 109
135 111
135 121
135 122
135 123
135 131
135 132
135 133
135 134
136 6
136 19
136 32
136 45
136 52
136 58
136 64
136 66
136 71
136 76
136 80
136 84
136 88
136 94
136 97
136 100
136 108
136 110
136 112
136 122
136 123
136 124
136 131
136 132
136 133
136 134
136 135
137 7
137 20
137 33
137 46
137 53
137 59
137 65
137 67
137 72
137 77
137 81
137 85
137 89
137 95
137 98
137 101
137 109
137 111
137 113
137 123
137 124
137 125
137 131
137 132
137 133
137 134
137 135
137 136
138 8
138 21
138 34
138 40
138 47
138 54
138 60
138 68
138 73
138 78
138 82
138 86
138 90
138 96
138 99
138 102
138 110
138 112
138 114
138 124
138 125
138 126
138 131
138 132
138 133
138 134
138 135
138 136
138 137
139 9
139 22
139 27
139 35
139 41
139 48
139 55
139 61
139 69
139 74
139 83
139 87
139 91
139 97
139 100
139 103
139 111
139 113
139 115
139 125
139 126
139 127
139 131
139 132
139 133
139 134
139 135
139 136
139 137
139 138
140 10
140 14
140 23
140 28
140 36
140 42
140 49
140 56
140 62
140 70
140 75
140 84
140 88
140 98
140 101
140 104
140 112
140 114
140 116
140 126
140 127
140 128
140 131
140 132
140 133
140 134
140 135
140 136
140 137
140 138
140 139
141 1
141 11
141 15
141 24
141 29
141 37
141 43
141 50
141 57
141 63
141 71
141 76
141 85
141 89
141 99
141 102
141 113
141 115
141 117
141 127
141 128
141 129
141 131
141 132
141 133
141 134
141 135
141 136
141 137
141 138
141 139
141 140
142 2
142 12
142 16
142 25
142 30
142 38
142 44
142 51
142 58
142 64
142 72
142 77
142 86
142 90
142 100
142 103
142 114
142 116
142 128
142 129
142 130
142 131
142 132
142 133
142 134
142 135
142 136
142 137
142 138
142 139
142 140
142 141
143 3
143 13
143 17
143 26
143 31
143 39
143 45
143 52
143 59
143 65
143 73
143 78
143 87
143 91
143 101
143 104
143 115
143 117
143 129
143 130
143 131
143 132
143 133
143 134
143 135
143 136
143 137
143 138
143 139
143 140
143 141
143 142
144 1
144 12
144 14
144 24
144 27
144 36
144 40
144 48
144 53
144 60
144 66
144 72
144 79
144 84
144 92
144 96
144 105
144 108
144 118
144 120
144 131
144 132
145 2
145 13
145 15
145 25
145 28
145 37
145 41
145 49
145 54
145 61
145 67
145 73
145 80
145 85
145 93
145 97
145 106
145 109
145 119
145 121
145 131
145 132
145 133
145 144
146 3
146 16
146 26
146 29
146 38
146 42
146 50
146 55
146 62
146 68
146 74
146 81
146 86
146 94
146 98
146 107
146 110
146 118
146 120
146 122
146 132
146 133
146 134
146 144
146 145
147 4
147 17
147 30
147 39
147 43
147 51
147 56
147 63
147 69
147 75
147 82
147 87
147 95
147 99
147 105
147 108
147 111
147 119
147 121
147 123
147 133
147 134
147 135
147 144
147 145
147 146
148 5
148 18
148 31
148 44
148 52
148 57
148 64
148 70
148 76
148 83
148 88
148 92
148 96
148 100
148 106
148 109
148 112
148 120
148 122
148 124
148 134
148 135
148 136
148 144
148 145
148 146
148 147
149 6
149 19
149 32
149 45
149 58
149 65
149 71
149 77
149 79
149 84
149 89
149 93
149 97
149 101
149 107
149 110
149 113
149 121
149 123
149 125
149 135
149 136
149 137
149 144
149 145
149 146
149 147
149 148
150 7
150 20
150 33
150 46
150 59
150 66
150 72
150 78
150 80
150 85
150 90
150 94
150 98
150 102
150 108
150 111
150 114
150 122
150 124
150 126
150 136
150 137
150 138
150 144
150 145
150 146
150 147
150 148
150 149
151 8
151 21
151 34
151 47
151 53
151 60
151 67
151 73
151 81
151 86
151 91
151 95
151 99
151 103
151 109
151 112
151 115
151 123
151 125
151 127
151 137
151 138
151 139
151 144
151 145
151 146
151 147
151 148
151 149
151 150
152 9
152 22
152 35
152 40
152 48
152 54
152 61
152 68
152 74
152 82
152 87
152 96
152 100
152 104
152 110
152 113
152 116
152 124
152 126
152 128
152 138
152 139
152 140
152 144
152 145
152 146
152 147
152 148
152 149
152 150
152 151
153 10
153 23
153 27
153 36
153 41
153 49
153 55
153 62
153 69
153 75
153 83
153 88
153 97
153 101
153 111
153 114
153 117
153 125
153 127
153 129
153 139
153 140
153 141
153 144
153 145
153 146
153 147
153 148
153 149
153 150
153 151
153 152
154 11
154 14
154 24
154 28
154 37
154 42
154 50
154 56
154 63
154 70
154 76
154 84
154 89
154 98
154 102
154 112
154 115
154 126
154 128
154 130
154 140
154 141
154 142
154 144
154 145
154 146
154 147
154 148
154 149
154 150
154 151
154 152
154 153
155 1
155 12
155 15
155 25
155 29
155 38
155 43
155 51
155 57
155 64
155 71
155 77
155 85
155 90
155 99
155 103
155 113
155 116
155 127
155 129
155 141
155 142
155 143
155 144
155 145
155 146
155 147
155 148
155 149
155 150
155 151
155 152
155 153
155 154
156 2
156 13
156 16
156 26
156 30
156 39
156 44
156 52
156 58
156 65
156 72
156 78
156 86
156 91
156 100
156 104
156 114
156 117
156 128
156 130
156 142
156 143
156 144
156 145
156 146
156 147
156 148
156 149
156 150
156 151
156 152
156 153
156 154
156 155
157 1
157 13
157 14
157 25
157 27
157 37
157 40
157 49
157 53
157 61
157 66
157 73
157 79
157 85
157 92
157 97
157 105
157 109
157 118
157 121
157 131
157 133
157 144
157 145
158 2
158 15
158 26
158 28
158 38
158 41
158 50
158 54
158 62
158 67
158 74
158 80
158 86
158 93
158 98
158 106
158 110
158 119
158 122
158 132
158 134
158 144
158 145
158 146
158 157
159 3
159 16
159 29
159 39
159 42
159 51
159 55
159 63
159 68
159 75
159 81
159 87
159 94
159 99
159 107
159 111
159 120
159 123
159 131
159 133
159 135
159 145
159 146
159 147
159 157
159 158
160 4
160 17
160 30
160 43
160 52
160 56
160 64
160 69
160 76
160 82
160 88
160 95
160 100
160 108
160 112
160 118
160 121
160 124
160 132
160 134
160 136
160 146
160 147
160 148
160 157
160 158
160 159
161 5
161 18
161 31
161 44
161 57
161 65
161 70
161 77
161 83
161 89
161 96
161 101
161 105
161 109
161 113
161 119
161 122
161 125
161 133
161 135
161 137
161 147
161 148
161 149
161 157
161 158
161 159
161 160
162 6
162 19
162 32
162 45
162 58
162 71
162 78
162 84
162 90
162 92
162 97
162 102
162 106
162 110
162 114
162 120
162 123
162 126
162 134
162 136
162 138
162 148
162 149
162 150
162 157
162 158
162 159
162 160
162 161
163 7
163 20
163 33
163 46
163 59
163 72
163 79
163 85
163 91
163 93
163 98
163 103
163 107
163 111
163 115
163 121
163 124
163 127
163 135
163 137
163 139
163 149
163 150
163 151
163 157
163 158
163 159
163 160
163 161
163 162
164 8
164 21
164 34
164 47
164 60
164 66
164 73
164 80
164 86
164 94
164 99
164 104
164 108
164 112
164 116
164 122
164 125
164 128
164 136
164 138
164 140
164 150
164 151
164 152
164 157
164 158
164 159
164 160
164 161
164 162
164 163
165 9
165 22
165 35
165 48
165 53
165 61
165 67
165 74
165 81
165 87
165 95
165 100
165 109
165 113
165 117
165 123
165 126
165 129
165 137
165 139
165 141
165 151
165 152
165 153
165 157
165 158
165 159
165 160
165 161
165 162
165 163
165 164
166 10
166 23
166 36
166 40
166 49
166 54
166 62
166 68
166 75
166 82
166 88
166 96
166 101
166 110
166 114
166 124
166 127
166 130
166 138
166 140
166 142
166 152
166 153
166 154
166 157
166 158
166 159
166 160
166 161
166 162
166 163
166 164
166 165
167 11
167 24
167 27
167 37
167 41
167 50
167 55
167 63
167 69
167 76
167 83
167 89
167 97
167 102
167 111
167 115
167 125
167 128
167 139
167 141
167 143
167 153
167 154
167 155
167 157
167 158
167 159
167 160
167 161
167 162
167 163
167 164
167 165
167 166
168 12
168 14
168 25
168 28
168 38
168 42
168 51
168 56
168 64
168 70
168 77
168 84
168 90
168 98
168 103
168 112
168 116
168 126
168 129
168 140
168 142
168 154
168 155
168 156
168 157
168 158
168 159
168 160
168 161
168 162
168 163
168 164
168 165
168 166
168 167
169 1
169 13
169 15
169 26
169 29
169 39
169 43
169 52
169 57
169 65
169 71
169 78
169 85
169 91
169 99
169 104
169 113
169 117
169 127
169 130
169 141
169 143
169 155
169 156
169 157
169 158
169 159
169 160
169 161
169 162
169 163
169 164
169 165
169 166
169 167
169 168
13